p tw 24 156
0 1
0 2
0 4
0 20
0 11
0 19
0 3
0 6
0 22
0 23
0 9
0 21
0 10
0 12
0 5
0 16
0 13
1 2
1 4
1 9
1 10
1 13
1 6
1 20
1 21
1 22
1 8
1 23
1 3
1 14
1 15
1 12
1 18
1 11
2 10
2 11
2 15
2 17
2 13
2 9
2 19
2 6
2 4
2 5
2 12
2 23
3 4
3 5
3 6
3 14
3 12
3 20
3 21
4 5
4 9
4 14
4 15
4 10
4 16
4 7
4 18
4 6
4 20
4 23
4 12
4 11
4 19
5 6
5 12
5 10
5 23
6 7
6 8
6 12
6 20
6 15
6 18
6 9
6 10
6 22
6 16
6 23
7 8
7 18
7 11
7 17
7 20
7 14
7 10
7 16
8 23
8 11
8 12
8 14
8 21
8 20
8 16
8 19
8 10
8 15
9 19
9 10
9 21
9 15
9 13
9 12
9 11
10 11
10 12
10 13
10 16
10 18
10 19
10 22
10 14
10 15
11 12
11 17
11 19
11 20
11 21
11 13
12 17
12 19
12 18
12 13
13 19
13 23
13 21
13 15
14 15
14 21
14 23
14 20
14 19
15 17
15 23
15 22
15 16
15 18
15 19
15 20
16 19
16 20
16 18
16 23
17 21
18 19
18 23
19 20
19 21
19 23
20 23
20 21
21 22
22 23
